interface ihello
{
  in void hello ();
  behavior {}
}

component hello
{
  provides ihello p;
  requires ihello r;
  behavior {}
}

component binding_cycle
{
  system
  {
    hello h;
    h.p <=> h.r;
  }
}
